1111100 AB
349 372 395 419 443 468 494 520 547 574 601 627 654 669 683 700 717 734 751 769 791 813 835 857 879 901 923 945 967 989 1010 1032 1051 1070 1089 1108 1127 1153 1179 1206 1219 1232 1257 1282 1307 1320 1333 1345 1358 1379 1400 1421 2 23 45
1111100 BA
409 440 463 482 501 520 539 558 577 596 616 644 671 698 726 753 770 787 804 821 839 857 875 892 912 932 952 972 992 1014 1036 1058 1079 1101 1121 1140 1159 1178 1197 1223 1248 1273 1296 1321 1346 1371 1395 1418
0000011 AB
349 381 413 445 477 506 535 563 592 628 665 684 703 740 777 803 829 855 884 913 942 971 1000 1029 1058 1086 1114 1142 1170 1198 1227 1237 1260 1283 1306 1336 1367 1431 54
0000011 BA
409 444 479 514 549 576 603 631 658 694 731 768 805 830 855 880 904 928 956 984 1011 1039 1067 1096 1125 1153 1180 1208 1236 1265 1299 1365 1427
